p cnf 50 150 
1 -29 46  0
1 3 32  0
1 -35 17  0
1 -2 27  0
1 -49 -31  0
1 35 28  0
1 48 26  0
1 -22 -42  0
1 37 -26  0
1 7 -25  0
1 41 -36  0
1 12 11  0
1 -41 -44  0
1 -22 38  0
1 -13 -44  0
1 -36 22  0
1 47 48  0
1 -22 16  0
1 1 7  0
1 17 16  0
1 -9 -8  0
1 -45 9  0
1 -2 -36  0
1 7 24  0
1 22 -19  0
1 35 -1  0
1 -7 8  0
1 -24 -20  0
1 27 13  0
1 -21 10  0
1 46 18  0
1 42 18  0
1 37 12  0
1 13 9  0
1 -17 -3  0
1 22 -23  0
1 36 33  0
1 -43 -46  0
1 -13 38  0
1 6 -46  0
1 8 22  0
1 -30 -18  0
1 -21 -31  0
1 -4 -7  0
1 -40 -9  0
1 5 24  0
1 11 22  0
1 39 8  0
1 -21 -34  0
1 22 36  0
1 22 -1  0
1 42 -46  0
1 41 1  0
1 -21 -25  0
1 -41 -38  0
1 1 -40  0
1 29 7  0
1 -15 9  0
1 16 14  0
1 32 -7  0
1 10 -15  0
1 39 -34  0
1 -21 2  0
1 42 45  0
1 -1 12  0
1 -21 -31  0
1 38 -47  0
1 48 -4  0
1 -34 1  0
1 30 4  0
1 26 -49  0
1 -19 2  0
1 17 -14  0
1 -50 -8  0
1 -24 29  0
1 32 6  0
1 7 -4  0
1 -7 -28  0
1 27 -42  0
1 -44 5  0
1 19 22  0
1 29 43  0
1 21 8  0
1 13 43  0
1 46 38  0
1 -16 -46  0
1 -38 -46  0
1 -1 35  0
1 -6 -48  0
1 -41 50  0
1 7 9  0
1 -1 -31  0
1 -19 -43  0
1 -39 -32  0
1 28 -12  0
1 -47 -3  0
1 -37 35  0
1 -46 39  0
1 -8 -31  0
1 -27 8  0
1 42 27  0
1 -2 33  0
1 11 25  0
1 -27 48  0
1 -32 -22  0
1 -10 16  0
1 47 27  0
1 -35 -2  0
1 -29 -4  0
1 -37 -21  0
1 46 41  0
1 -39 43  0
1 -15 21  0
1 -37 -35  0
1 11 -5  0
1 7 -4  0
1 7 -14  0
1 -34 -2  0
1 -43 -2  0
1 -37 1  0
1 -49 -24  0
1 -16 26  0
1 -31 -39  0
1 -9 11  0
1 25 -34  0
1 23 35  0
1 37 48  0
1 -49 -1  0
1 -25 -22  0
1 48 -24  0
1 12 35  0
1 -45 4  0
1 -37 48  0
1 33 12  0
1 -10 26  0
1 26 -21  0
1 -43 -36  0
1 9 48  0
1 -33 -30  0
1 -34 33  0
1 -30 41  0
1 -3 4  0
1 29 24  0
1 44 -27  0
1 -12 44  0
1 -41 43  0
1 23 30  0
1 -12 -48  0
1 39 -4  0
1 8 -36  0
